Automatic mesh 
0
Monkhorst-Pack
              1          1            1
      0.0000000      0.0000000      0.0000000
