image0
1.0
       26.2910003662         0.0000000000         0.0000000000
        0.0000000000        26.2910003662         0.0000000000
        0.0000000000         0.0000000000        26.2910003662
    O    N    C   Mn    H
  192   96  240   56   48
Cartesian
     3.996232033         7.847863674         2.910413742
     5.034726620         6.567492008         1.448634148
     3.996232033        20.993364334        16.055913925
     5.034726620        19.712993622        14.594135284
    17.141733170         7.847863674        16.055913925
    18.180227280         6.567492008        14.594135284
    17.141733170        20.993364334         2.910413742
    18.180227280        19.712993622         1.448634148
    22.294767380        18.443136215         2.910413742
    21.256273270        19.723506927         1.448634148
    22.294767380         5.297636509        16.055913925
    21.256273270         6.578008175        14.594135284
     9.149268150        18.443136215        16.055913925
     8.110773087        19.723506927        14.594135284
     9.149268150         5.297636509         2.910413742
     8.110773087         6.578008175         1.448634148
    22.294767380         7.847863674        23.380586624
    21.256273270         6.567492008        24.842365265
    22.294767380        20.993364334        10.235086441
    21.256273270        19.712993622        11.696866035
     9.149268150         7.847863674        10.235086441
     8.110773087         6.567492008        11.696866035
     9.149268150        20.993364334        23.380586624
     8.110773087        19.712993622        24.842365265
     3.996232033        18.443136215        23.380586624
     5.034726620        19.723506927        24.842365265
     3.996232033         5.297636509        10.235086441
     5.034726620         6.578008175        11.696866035
    17.141733170        18.443136215        10.235086441
    18.180227280        19.723506927        11.696866035
    17.141733170         5.297636509        23.380586624
    18.180227280         6.578008175        24.842365265
     2.910413742         3.996232033         7.847863674
     1.448634148         5.034726620         6.567492008
     2.910413742        17.141733170        20.993364334
     1.448634148        18.180227280        19.712993622
    16.055913925         3.996232033        20.993364334
    14.594135284         5.034726620        19.712993622
    16.055913925        17.141733170         7.847863674
    14.594135284        18.180227280         6.567492008
     2.910413742        22.294767380        18.443136215
     1.448634148        21.256273270        19.723506927
     2.910413742         9.149268150         5.297636509
     1.448634148         8.110773087         6.578008175
    16.055913925        22.294767380         5.297636509
    14.594135284        21.256273270         6.578008175
    16.055913925         9.149268150        18.443136215
    14.594135284         8.110773087        19.723506927
    23.380586624        22.294767380         7.847863674
    24.842365265        21.256273270         6.567492008
    23.380586624         9.149268150        20.993364334
    24.842365265         8.110773087        19.712993622
    10.235086441        22.294767380        20.993364334
    11.696866035        21.256273270        19.712993622
    10.235086441         9.149268150         7.847863674
    11.696866035         8.110773087         6.567492008
    23.380586624         3.996232033        18.443136215
    24.842365265         5.034726620        19.723506927
    23.380586624        17.141733170         5.297636509
    24.842365265        18.180227280         6.578008175
    10.235086441         3.996232033         5.297636509
    11.696866035         5.034726620         6.578008175
    10.235086441        17.141733170        18.443136215
    11.696866035        18.180227280        19.723506927
     7.847863674         2.910413742         3.996232033
     6.567492008         1.448634148         5.034726620
     7.847863674        16.055913925        17.141733170
     6.567492008        14.594135284        18.180227280
    20.993364334         2.910413742        17.141733170
    19.712993622         1.448634148        18.180227280
    20.993364334        16.055913925         3.996232033
    19.712993622        14.594135284         5.034726620
    18.443136215         2.910413742        22.294767380
    19.723506927         1.448634148        21.256273270
    18.443136215        16.055913925         9.149268150
    19.723506927        14.594135284         8.110773087
     5.297636509         2.910413742         9.149268150
     6.578008175         1.448634148         8.110773087
     5.297636509        16.055913925        22.294767380
     6.578008175        14.594135284        21.256273270
     7.847863674        23.380586624        22.294767380
     6.567492008        24.842365265        21.256273270
     7.847863674        10.235086441         9.149268150
     6.567492008        11.696866035         8.110773087
    20.993364334        23.380586624         9.149268150
    19.712993622        24.842365265         8.110773087
    20.993364334        10.235086441        22.294767380
    19.712993622        11.696866035        21.256273270
    18.443136215        23.380586624         3.996232033
    19.723506927        24.842365265         5.034726620
    18.443136215        10.235086441        17.141733170
    19.723506927        11.696866035        18.180227280
     5.297636509        23.380586624        17.141733170
     6.578008175        24.842365265        18.180227280
     5.297636509        10.235086441         3.996232033
     6.578008175        11.696866035         5.034726620
    22.294767380        18.443136215        23.380586624
    21.256273270        19.723506927        24.842365265
    22.294767380         5.297636509        10.235086441
    21.256273270         6.578008175        11.696866035
     9.149268150        18.443136215        10.235086441
     8.110773087        19.723506927        11.696866035
     9.149268150         5.297636509        23.380586624
     8.110773087         6.578008175        24.842365265
     3.996232033         7.847863674        23.380586624
     5.034726620         6.567492008        24.842365265
     3.996232033        20.993364334        10.235086441
     5.034726620        19.712993622        11.696866035
    17.141733170         7.847863674        10.235086441
    18.180227280         6.567492008        11.696866035
    17.141733170        20.993364334        23.380586624
    18.180227280        19.712993622        24.842365265
     3.996232033        18.443136215         2.910413742
     5.034726620        19.723506927         1.448634148
     3.996232033         5.297636509        16.055913925
     5.034726620         6.578008175        14.594135284
    17.141733170        18.443136215        16.055913925
    18.180227280        19.723506927        14.594135284
    17.141733170         5.297636509         2.910413742
    18.180227280         6.578008175         1.448634148
    22.294767380         7.847863674         2.910413742
    21.256273270         6.567492008         1.448634148
    22.294767380        20.993364334        16.055913925
    21.256273270        19.712993622        14.594135284
     9.149268150         7.847863674        16.055913925
     8.110773087         6.567492008        14.594135284
     9.149268150        20.993364334         2.910413742
     8.110773087        19.712993622         1.448634148
    23.380586624        22.294767380        18.443136215
    24.842365265        21.256273270        19.723506927
    23.380586624         9.149268150         5.297636509
    24.842365265         8.110773087         6.578008175
    10.235086441        22.294767380         5.297636509
    11.696866035        21.256273270         6.578008175
    10.235086441         9.149268150        18.443136215
    11.696866035         8.110773087        19.723506927
    23.380586624         3.996232033         7.847863674
    24.842365265         5.034726620         6.567492008
    23.380586624        17.141733170        20.993364334
    24.842365265        18.180227280        19.712993622
    10.235086441         3.996232033        20.993364334
    11.696866035         5.034726620        19.712993622
    10.235086441        17.141733170         7.847863674
    11.696866035        18.180227280         6.567492008
     2.910413742         3.996232033        18.443136215
     1.448634148         5.034726620        19.723506927
     2.910413742        17.141733170         5.297636509
     1.448634148        18.180227280         6.578008175
    16.055913925         3.996232033         5.297636509
    14.594135284         5.034726620         6.578008175
    16.055913925        17.141733170        18.443136215
    14.594135284        18.180227280        19.723506927
     2.910413742        22.294767380         7.847863674
     1.448634148        21.256273270         6.567492008
     2.910413742         9.149268150        20.993364334
     1.448634148         8.110773087        19.712993622
    16.055913925        22.294767380        20.993364334
    14.594135284        21.256273270        19.712993622
    16.055913925         9.149268150         7.847863674
    14.594135284         8.110773087         6.567492008
    18.443136215        23.380586624        22.294767380
    19.723506927        24.842365265        21.256273270
    18.443136215        10.235086441         9.149268150
    19.723506927        11.696866035         8.110773087
     5.297636509        23.380586624         9.149268150
     6.578008175        24.842365265         8.110773087
     5.297636509        10.235086441        22.294767380
     6.578008175        11.696866035        21.256273270
     7.847863674        23.380586624         3.996232033
     6.567492008        24.842365265         5.034726620
     7.847863674        10.235086441        17.141733170
     6.567492008        11.696866035        18.180227280
    20.993364334        23.380586624        17.141733170
    19.712993622        24.842365265        18.180227280
    20.993364334        10.235086441         3.996232033
    19.712993622        11.696866035         5.034726620
    18.443136215         2.910413742         3.996232033
    19.723506927         1.448634148         5.034726620
    18.443136215        16.055913925        17.141733170
    19.723506927        14.594135284        18.180227280
     5.297636509         2.910413742        17.141733170
     6.578008175         1.448634148        18.180227280
     5.297636509        16.055913925         3.996232033
     6.578008175        14.594135284         5.034726620
     7.847863674         2.910413742        22.294767380
     6.567492008         1.448634148        21.256273270
     7.847863674        16.055913925         9.149268150
     6.567492008        14.594135284         8.110773087
    20.993364334         2.910413742         9.149268150
    19.712993622         1.448634148         8.110773087
    20.993364334        16.055913925        22.294767380
    19.712993622        14.594135284        21.256273270
     3.383651733         9.704008102         1.133142114
     3.383651733        22.849508286        14.278642654
    16.529151917         9.704008102        14.278642654
    16.529151917        22.849508286         1.133142114
    22.907348633        16.586992264         1.133142114
    22.907348633         3.441491842        14.278642654
     9.761848450        16.586992264        14.278642654
     9.761848450         3.441491842         1.133142114
    22.907348633         9.704008102        25.157857895
    22.907348633        22.849508286        12.012357712
     9.761848450         9.704008102        12.012357712
     9.761848450        22.849508286        25.157857895
     3.383651733        16.586992264        25.157857895
     3.383651733         3.441491842        12.012357712
    16.529151917        16.586992264        12.012357712
    16.529151917         3.441491842        25.157857895
     1.133142114         3.383651733         9.704008102
     1.133142114        16.529151917        22.849508286
    14.278642654         3.383651733        22.849508286
    14.278642654        16.529151917         9.704008102
     1.133142114        22.907348633        16.586992264
     1.133142114         9.761848450         3.441491842
    14.278642654        22.907348633         3.441491842
    14.278642654         9.761848450        16.586992264
    25.157857895        22.907348633         9.704008102
    25.157857895         9.761848450        22.849508286
    12.012357712        22.907348633        22.849508286
    12.012357712         9.761848450         9.704008102
    25.157857895         3.383651733        16.586992264
    25.157857895        16.529151917         3.441491842
    12.012357712         3.383651733         3.441491842
    12.012357712        16.529151917        16.586992264
     9.704008102         1.133142114         3.383651733
     9.704008102        14.278642654        16.529151917
    22.849508286         1.133142114        16.529151917
    22.849508286        14.278642654         3.383651733
    16.586992264         1.133142114        22.907348633
    16.586992264        14.278642654         9.761848450
     3.441491842         1.133142114         9.761848450
     3.441491842        14.278642654        22.907348633
     9.704008102        25.157857895        22.907348633
     9.704008102        12.012357712         9.761848450
    22.849508286        25.157857895         9.761848450
    22.849508286        12.012357712        22.907348633
    16.586992264        25.157857895         3.383651733
    16.586992264        12.012357712        16.529151917
     3.441491842        25.157857895        16.529151917
     3.441491842        12.012357712         3.383651733
    22.907348633        16.586992264        25.157857895
    22.907348633         3.441491842        12.012357712
     9.761848450        16.586992264        12.012357712
     9.761848450         3.441491842        25.157857895
     3.383651733         9.704008102        25.157857895
     3.383651733        22.849508286        12.012357712
    16.529151917         9.704008102        12.012357712
    16.529151917        22.849508286        25.157857895
     3.383651733        16.586992264         1.133142114
     3.383651733         3.441491842        14.278642654
    16.529151917        16.586992264        14.278642654
    16.529151917         3.441491842         1.133142114
    22.907348633         9.704008102         1.133142114
    22.907348633        22.849508286        14.278642654
     9.761848450         9.704008102        14.278642654
     9.761848450        22.849508286         1.133142114
    25.157857895        22.907348633        16.586992264
    25.157857895         9.761848450         3.441491842
    12.012357712        22.907348633         3.441491842
    12.012357712         9.761848450        16.586992264
    25.157857895         3.383651733         9.704008102
    25.157857895        16.529151917        22.849508286
    12.012357712         3.383651733        22.849508286
    12.012357712        16.529151917         9.704008102
     1.133142114         3.383651733        16.586992264
     1.133142114        16.529151917         3.441491842
    14.278642654         3.383651733         3.441491842
    14.278642654        16.529151917        16.586992264
     1.133142114        22.907348633         9.704008102
     1.133142114         9.761848450        22.849508286
    14.278642654        22.907348633        22.849508286
    14.278642654         9.761848450         9.704008102
    16.586992264        25.157857895        22.907348633
    16.586992264        12.012357712         9.761848450
     3.441491842        25.157857895         9.761848450
     3.441491842        12.012357712        22.907348633
     9.704008102        25.157857895         3.383651733
     9.704008102        12.012357712        16.529151917
    22.849508286        25.157857895        16.529151917
    22.849508286        12.012357712         3.383651733
    16.586992264         1.133142114         3.383651733
    16.586992264        14.278642654        16.529151917
     3.441491842         1.133142114        16.529151917
     3.441491842        14.278642654         3.383651733
     9.704008102         1.133142114        22.907348633
     9.704008102        14.278642654         9.761848450
    22.849508286         1.133142114         9.761848450
    22.849508286        14.278642654        22.907348633
     3.954166412         8.539317131         0.686195135
     4.359047890         7.579695702         1.724689603
     3.954166412        21.684818268        13.831694603
     4.359047890        20.725194931        14.870189667
    17.099666595         8.539317131        13.831694603
    17.504547119         7.579695702        14.870189667
    17.099666595        21.684818268         0.686195135
    17.504547119        20.725194931         1.724689603
    22.336833954        17.751682281         0.686195135
    21.931953430        18.711305618         1.724689603
    22.336833954         4.606183052        13.831694603
    21.931953430         5.565804958        14.870189667
     9.191333771        17.751682281        13.831694603
     8.786452293        18.711305618        14.870189667
     9.191333771         4.606183052         0.686195135
     8.786452293         5.565804958         1.724689603
    22.336833954         8.539317131        25.604804993
    21.931953430         7.579695702        24.566310883
    22.336833954        21.684818268        12.459304810
    21.931953430        20.725194931        11.420810699
     9.191333771         8.539317131        12.459304810
     8.786452293         7.579695702        11.420810699
     9.191333771        21.684818268        25.604804993
     8.786452293        20.725194931        24.566310883
     3.954166412        17.751682281        25.604804993
     4.359047890        18.711305618        24.566310883
     3.954166412         4.606183052        12.459304810
     4.359047890         5.565804958        11.420810699
    17.099666595        17.751682281        12.459304810
    17.504547119        18.711305618        11.420810699
    17.099666595         4.606183052        25.604804993
    17.504547119         5.565804958        24.566310883
     0.686195135         3.954166412         8.539317131
     1.724689603         4.359047890         7.579695702
     0.686195135        17.099666595        21.684818268
     1.724689603        17.504547119        20.725194931
    13.831694603         3.954166412        21.684818268
    14.870189667         4.359047890        20.725194931
    13.831694603        17.099666595         8.539317131
    14.870189667        17.504547119         7.579695702
     0.686195135        22.336833954        17.751682281
     1.724689603        21.931953430        18.711305618
     0.686195135         9.191333771         4.606183052
     1.724689603         8.786452293         5.565804958
    13.831694603        22.336833954         4.606183052
    14.870189667        21.931953430         5.565804958
    13.831694603         9.191333771        17.751682281
    14.870189667         8.786452293        18.711305618
    25.604804993        22.336833954         8.539317131
    24.566310883        21.931953430         7.579695702
    25.604804993         9.191333771        21.684818268
    24.566310883         8.786452293        20.725194931
    12.459304810        22.336833954        21.684818268
    11.420810699        21.931953430        20.725194931
    12.459304810         9.191333771         8.539317131
    11.420810699         8.786452293         7.579695702
    25.604804993         3.954166412        17.751682281
    24.566310883         4.359047890        18.711305618
    25.604804993        17.099666595         4.606183052
    24.566310883        17.504547119         5.565804958
    12.459304810         3.954166412         4.606183052
    11.420810699         4.359047890         5.565804958
    12.459304810        17.099666595        17.751682281
    11.420810699        17.504547119        18.711305618
     8.539317131         0.686195135         3.954166412
     7.579695702         1.724689603         4.359047890
     8.539317131        13.831694603        17.099666595
     7.579695702        14.870189667        17.504547119
    21.684818268         0.686195135        17.099666595
    20.725194931         1.724689603        17.504547119
    21.684818268        13.831694603         3.954166412
    20.725194931        14.870189667         4.359047890
    17.751682281         0.686195135        22.336833954
    18.711305618         1.724689603        21.931953430
    17.751682281        13.831694603         9.191333771
    18.711305618        14.870189667         8.786452293
     4.606183052         0.686195135         9.191333771
     5.565804958         1.724689603         8.786452293
     4.606183052        13.831694603        22.336833954
     5.565804958        14.870189667        21.931953430
     8.539317131        25.604804993        22.336833954
     7.579695702        24.566310883        21.931953430
     8.539317131        12.459304810         9.191333771
     7.579695702        11.420810699         8.786452293
    21.684818268        25.604804993         9.191333771
    20.725194931        24.566310883         8.786452293
    21.684818268        12.459304810        22.336833954
    20.725194931        11.420810699        21.931953430
    17.751682281        25.604804993         3.954166412
    18.711305618        24.566310883         4.359047890
    17.751682281        12.459304810        17.099666595
    18.711305618        11.420810699        17.504547119
     4.606183052        25.604804993        17.099666595
     5.565804958        24.566310883        17.504547119
     4.606183052        12.459304810         3.954166412
     5.565804958        11.420810699         4.359047890
    22.336833954        17.751682281        25.604804993
    21.931953430        18.711305618        24.566310883
    22.336833954         4.606183052        12.459304810
    21.931953430         5.565804958        11.420810699
     9.191333771        17.751682281        12.459304810
     8.786452293        18.711305618        11.420810699
     9.191333771         4.606183052        25.604804993
     8.786452293         5.565804958        24.566310883
     3.954166412         8.539317131        25.604804993
     4.359047890         7.579695702        24.566310883
     3.954166412        21.684818268        12.459304810
     4.359047890        20.725194931        11.420810699
    17.099666595         8.539317131        12.459304810
    17.504547119         7.579695702        11.420810699
    17.099666595        21.684818268        25.604804993
    17.504547119        20.725194931        24.566310883
     3.954166412        17.751682281         0.686195135
     4.359047890        18.711305618         1.724689603
     3.954166412         4.606183052        13.831694603
     4.359047890         5.565804958        14.870189667
    17.099666595        17.751682281        13.831694603
    17.504547119        18.711305618        14.870189667
    17.099666595         4.606183052         0.686195135
    17.504547119         5.565804958         1.724689603
    22.336833954         8.539317131         0.686195135
    21.931953430         7.579695702         1.724689603
    22.336833954        21.684818268        13.831694603
    21.931953430        20.725194931        14.870189667
     9.191333771         8.539317131        13.831694603
     8.786452293         7.579695702        14.870189667
     9.191333771        21.684818268         0.686195135
     8.786452293        20.725194931         1.724689603
    25.604804993        22.336833954        17.751682281
    24.566310883        21.931953430        18.711305618
    25.604804993         9.191333771         4.606183052
    24.566310883         8.786452293         5.565804958
    12.459304810        22.336833954         4.606183052
    11.420810699        21.931953430         5.565804958
    12.459304810         9.191333771        17.751682281
    11.420810699         8.786452293        18.711305618
    25.604804993         3.954166412         8.539317131
    24.566310883         4.359047890         7.579695702
    25.604804993        17.099666595        21.684818268
    24.566310883        17.504547119        20.725194931
    12.459304810         3.954166412        21.684818268
    11.420810699         4.359047890        20.725194931
    12.459304810        17.099666595         8.539317131
    11.420810699        17.504547119         7.579695702
     0.686195135         3.954166412        17.751682281
     1.724689603         4.359047890        18.711305618
     0.686195135        17.099666595         4.606183052
     1.724689603        17.504547119         5.565804958
    13.831694603         3.954166412         4.606183052
    14.870189667         4.359047890         5.565804958
    13.831694603        17.099666595        17.751682281
    14.870189667        17.504547119        18.711305618
     0.686195135        22.336833954         8.539317131
     1.724689603        21.931953430         7.579695702
     0.686195135         9.191333771        21.684818268
     1.724689603         8.786452293        20.725194931
    13.831694603        22.336833954        21.684818268
    14.870189667        21.931953430        20.725194931
    13.831694603         9.191333771         8.539317131
    14.870189667         8.786452293         7.579695702
    17.751682281        25.604804993        22.336833954
    18.711305618        24.566310883        21.931953430
    17.751682281        12.459304810         9.191333771
    18.711305618        11.420810699         8.786452293
     4.606183052        25.604804993         9.191333771
     5.565804958        24.566310883         8.786452293
     4.606183052        12.459304810        22.336833954
     5.565804958        11.420810699        21.931953430
     8.539317131        25.604804993         3.954166412
     7.579695702        24.566310883         4.359047890
     8.539317131        12.459304810        17.099666595
     7.579695702        11.420810699        17.504547119
    21.684818268        25.604804993        17.099666595
    20.725194931        24.566310883        17.504547119
    21.684818268        12.459304810         3.954166412
    20.725194931        11.420810699         4.359047890
    17.751682281         0.686195135         3.954166412
    18.711305618         1.724689603         4.359047890
    17.751682281        13.831694603        17.099666595
    18.711305618        14.870189667        17.504547119
     4.606183052         0.686195135        17.099666595
     5.565804958         1.724689603        17.504547119
     4.606183052        13.831694603         3.954166412
     5.565804958        14.870189667         4.359047890
     8.539317131         0.686195135        22.336833954
     7.579695702         1.724689603        21.931953430
     8.539317131        13.831694603         9.191333771
     7.579695702        14.870189667         8.786452293
    21.684818268         0.686195135         9.191333771
    20.725194931         1.724689603         8.786452293
    21.684818268        13.831694603        22.336833954
    20.725194931        14.870189667        21.931953430
     3.118112803        10.342880249         0.000000000
     3.118112803        23.488380432        13.145500183
    16.263612747        10.342880249        13.145500183
    16.263612747        23.488380432         0.000000000
    23.172887802        15.948120117         0.000000000
    23.172887802         2.802620649        13.145500183
    10.027387619        15.948120117        13.145500183
    10.027387619         2.802620649         0.000000000
    23.172887802        10.342880249         0.000000000
    23.172887802        23.488380432        13.145500183
    10.027387619        10.342880249        13.145500183
    10.027387619        23.488380432         0.000000000
     3.118112803        15.948120117         0.000000000
     3.118112803         2.802620649        13.145500183
    16.263612747        15.948120117        13.145500183
    16.263612747         2.802620649         0.000000000
     0.000000000         3.118112803        10.342880249
     0.000000000        16.263612747        23.488380432
    13.145500183         3.118112803        23.488380432
    13.145500183        16.263612747        10.342880249
     0.000000000        23.172887802        15.948120117
     0.000000000        10.027387619         2.802620649
    13.145500183        23.172887802         2.802620649
    13.145500183        10.027387619        15.948120117
     0.000000000        23.172887802        10.342880249
     0.000000000        10.027387619        23.488380432
    13.145500183        23.172887802        23.488380432
    13.145500183        10.027387619        10.342880249
     0.000000000         3.118112803        15.948120117
     0.000000000        16.263612747         2.802620649
    13.145500183         3.118112803         2.802620649
    13.145500183        16.263612747        15.948120117
    10.342880249         0.000000000         3.118112803
    10.342880249        13.145500183        16.263612747
    23.488380432         0.000000000        16.263612747
    23.488380432        13.145500183         3.118112803
    15.948120117         0.000000000        23.172887802
    15.948120117        13.145500183        10.027387619
     2.802620649         0.000000000        10.027387619
     2.802620649        13.145500183        23.172887802
    10.342880249         0.000000000        23.172887802